(set-logic ALL)
(declare-var x (_ BitVec 32))
(declare-var x! (_ BitVec 32))
(declare-var y (_ BitVec 32))
(declare-var y! (_ BitVec 32))
(declare-var x_0 (_ BitVec 32))
(declare-var x_0! (_ BitVec 32))
(declare-var x_1 (_ BitVec 32))
(declare-var x_1! (_ BitVec 32))
(declare-var x_2 (_ BitVec 32))
(declare-var x_2! (_ BitVec 32))
(declare-var x_3 (_ BitVec 32))
(declare-var x_3! (_ BitVec 32))
(declare-var y_0 (_ BitVec 32))
(declare-var y_0! (_ BitVec 32))
(declare-var y_1 (_ BitVec 32))
(declare-var y_1! (_ BitVec 32))
(declare-var y_2 (_ BitVec 32))
(declare-var y_2! (_ BitVec 32))
(synth-fun inv-f((parameter0 (_ BitVec 32))(parameter1 (_ BitVec 32))(parameter2 (_ BitVec 32))(parameter3 (_ BitVec 32))(parameter4 (_ BitVec 32))(parameter5 (_ BitVec 32))(parameter6 (_ BitVec 32))(parameter7 (_ BitVec 32))(parameter8 (_ BitVec 32)))Bool) 
(constraint (=> (and (= x x_1) (= x_1 (_ bv4294952296 32)) )(inv-f x y x_0 x_1 x_2 x_3 y_0 y_1 y_2 )))
(constraint (=> (and (inv-f x y x_0 x_1 x_2 x_3 y_0 y_1 y_2 ) (or (and (and (and (and (= x_2 x) (= y_1 y) ) (= x_2 x!) ) (= y_1 y!) ) (= y y!) ) (and (and (and (and (and (and (= x_2 x) (= y_1 y) ) (bvslt x_2 (_ bv0 32)) ) (= x_3 (bvadd x_2 y_1)) ) (= y_2 (bvadd y_1 (_ bv1 32))) ) (= x_3 x!) ) (= y_2 y!) ) ) )(inv-f x! y! x_0! x_1! x_2! x_3! y_0! y_1! y_2! )))
(constraint (=> (inv-f x y x_0 x_1 x_2 x_3 y_0 y_1 y_2 )(or (not (and (= x x_2) (= y y_1) )) (not (and (not (bvslt x_2 (_ bv0 32))) (not (bvsgt y_1 (_ bv0 32))) )) )))
(check-synth)

